55604
41, 35, 5, 37, 51, 40, 7, 20, 50, 24, 38, 8, 44, 32, 19, 48, 17, 23, 53, 34, 54, 47, 14, 2, 16, 39, 46, 36, 15, 52, 45, 11, 25, 31, 27, 1, 33, 42, 18, 4, 30, 12, 9, 10, 22, 29, 21, 49, 26, 55, 28, 6, 3, 43, 13
